
Gurobi 9.1.2 (linux64, gurobi_cl) logging started Fri Jul 30 13:55:19 2021

Using license file /opt/gurobi/gurobi.lic
Set parameter TimeLimit to value 600
Set parameter Heuristics to value 0
Set parameter Cuts to value 0
Set parameter LogFile to value 912-Cuts0-Heuristics0-glass4-0.log

Gurobi Optimizer version 9.1.2 build v9.1.2rc0 (linux64)
Copyright (c) 2021, Gurobi Optimization, LLC

Read MPS format model from file /nfs/models/mip/glass4.mps.bz2
Reading time = 0.01 seconds
glass4: 396 rows, 322 columns, 1815 nonzeros
Thread count: 4 physical cores, 8 logical processors, using up to 8 threads
Optimize a model with 396 rows, 322 columns and 1815 nonzeros
Model fingerprint: 0x0a9d9037
Variable types: 20 continuous, 302 integer (0 binary)
Coefficient statistics:
  Matrix range     [1e+00, 8e+06]
  Objective range  [1e+00, 1e+06]
  Bounds range     [1e+00, 8e+02]
  RHS range        [1e+00, 8e+06]
Presolve removed 6 rows and 6 columns
Presolve time: 0.00s
Presolved: 390 rows, 316 columns, 1803 nonzeros
Variable types: 19 continuous, 297 integer (297 binary)

Root relaxation: objective 8.000024e+08, 72 iterations, 0.00 seconds

    Nodes    |    Current Node    |     Objective Bounds      |     Work
 Expl Unexpl |  Obj  Depth IntInf | Incumbent    BestBd   Gap | It/Node Time

     0     0 8.0000e+08    0   72          - 8.0000e+08      -     -    0s
     0     0 8.0000e+08    0   72          - 8.0000e+08      -     -    0s
     0     2 8.0000e+08    0   72          - 8.0000e+08      -     -    0s
*  791  1353             204    2.746692e+09 8.0000e+08  70.9%   2.5    0s
* 1151  1352             165    2.566691e+09 8.0000e+08  68.8%   2.7    0s
* 2851  2204              99    2.450023e+09 8.0000e+08  67.3%   2.7    0s
* 3397  2472             124    2.450022e+09 8.0000e+08  67.3%   2.8    0s
* 3419  2361             120    2.433355e+09 8.0000e+08  67.1%   2.8    0s
* 3446  2226             120    2.166688e+09 8.0000e+08  63.1%   2.8    0s
* 4069  2383             113    2.116686e+09 8.0000e+08  62.2%   2.7    0s
* 4072  2309             114    2.116685e+09 8.0000e+08  62.2%   2.7    0s
* 4944  3189             121    2.100020e+09 8.0000e+08  61.9%   2.8    0s
* 5526  2841             100    2.050025e+09 8.0000e+08  61.0%   2.8    0s
* 5527  2778             100    2.050025e+09 8.0000e+08  61.0%   2.8    0s
* 5859  2703             138    2.050021e+09 8.0000e+08  61.0%   2.8    0s
* 6340  2995             102    2.050020e+09 8.0000e+08  61.0%   2.8    0s
* 6341  2995             102    2.050020e+09 8.0000e+08  61.0%   2.8    0s
* 6346  2995             102    2.050020e+09 8.0000e+08  61.0%   2.8    0s
* 7297  4331              98    2.050019e+09 8.0000e+08  61.0%   2.8    0s
* 7298  4331              98    2.050019e+09 8.0000e+08  61.0%   2.8    0s
* 7299  4211              97    2.000018e+09 8.0000e+08  60.0%   2.8    0s
* 7310  4211              98    2.000018e+09 8.0000e+08  60.0%   2.8    0s
* 7561  4139             133    1.975018e+09 8.0000e+08  59.5%   2.7    0s
* 7568  4121             137    1.966685e+09 8.0000e+08  59.3%   2.7    0s
* 8659  5231             123    1.866685e+09 8.0000e+08  57.1%   2.7    0s
* 8665  5231             126    1.866684e+09 8.0000e+08  57.1%   2.7    0s
*11709  6869              96    1.850020e+09 8.0000e+08  56.8%   2.6    0s
*18064 12174             117    1.816685e+09 8.0000e+08  56.0%   2.7    0s
*22788 14529              61    1.800018e+09 8.0000e+08  55.6%   2.8    0s
*23316 14862              85    1.766685e+09 8.0000e+08  54.7%   2.8    0s
*27620 16454              69    1.700016e+09 8.0000e+08  52.9%   2.9    0s
*29572 17497              63    1.700016e+09 8.0000e+08  52.9%   2.9    0s
*29573 17495              63    1.700016e+09 8.0000e+08  52.9%   2.9    0s
*33106 20679              70    1.700016e+09 8.0000e+08  52.9%   2.9    1s
*33113 18581              73    1.666682e+09 8.0000e+08  52.0%   2.9    1s
*37413 20441              90    1.666681e+09 8.0000e+08  52.0%   2.9    1s
*79942 49103             106    1.666680e+09 8.0000e+08  52.0%   3.1    2s
*118065 65117              75    1.650013e+09 8.0000e+08  51.5%   3.3    3s
*118069 65092              75    1.650013e+09 8.0000e+08  51.5%   3.3    3s
*129609 68085              89    1.600015e+09 8.0001e+08  50.0%   3.3    3s
*156252 81199              95    1.600014e+09 8.0001e+08  50.0%   3.4    4s
 158792 83008 1.0667e+09   65   50 1.6000e+09 8.0001e+08  50.0%   3.4    5s
*252756 119637             101    1.600013e+09 8.0001e+08  50.0%   3.7    8s
 299102 135592 1.6000e+09   79   30 1.6000e+09 8.6667e+08  45.8%   3.8   10s
*408050 166165              82    1.580014e+09 9.0001e+08  43.0%   3.8   13s
*446329 179759              96    1.575015e+09 9.0001e+08  42.9%   3.8   14s
*446330 174162              95    1.550016e+09 9.0001e+08  41.9%   3.8   14s
 446753 174814 1.5250e+09   50   26 1.5500e+09 9.0001e+08  41.9%   3.8   15s
 571948 217250 1.5000e+09   65   32 1.5500e+09 1.0000e+09  35.5%   3.9   20s
*586012 221156              86    1.550015e+09 1.0000e+09  35.5%   3.9   20s
*599627 227708              77    1.550015e+09 1.0000e+09  35.5%   3.9   20s
*599628 213766              76    1.533348e+09 1.0000e+09  34.8%   3.9   20s
 718749 262908 1.2000e+09   59   40 1.5333e+09 1.0000e+09  34.8%   3.8   25s
*748718 266240              78    1.500025e+09 1.0000e+09  33.3%   3.8   26s
 846058 295307 infeasible   52      1.5000e+09 1.0000e+09  33.3%   3.8   30s
 966918 321909 infeasible   50      1.5000e+09 1.0500e+09  30.0%   3.9   35s
*985491 327746              96    1.500015e+09 1.0667e+09  28.9%   3.9   35s
 1098830 366159 1.1000e+09   56   45 1.5000e+09 1.1000e+09  26.7%   3.9   40s
*1099219 364105              82    1.500014e+09 1.1000e+09  26.7%   3.9   40s
 1225096 403164 1.5000e+09   58   34 1.5000e+09 1.1000e+09  26.7%   3.8   45s
*1226835 227840              97    1.433346e+09 1.1000e+09  23.3%   3.8   45s
*1247159 212414              59    1.400013e+09 1.1000e+09  21.4%   3.8   46s
 1324443 203159 infeasible   55      1.4000e+09 1.1667e+09  16.7%   3.9   50s
*1354414 201562              66    1.400013e+09 1.2000e+09  14.3%   3.9   51s
 1434307 227085 1.4000e+09   43   28 1.4000e+09 1.2000e+09  14.3%   3.8   55s
 1546823 253712 1.4000e+09   58   24 1.4000e+09 1.2000e+09  14.3%   3.8   60s
 1657498 272878 infeasible   89      1.4000e+09 1.2000e+09  14.3%   3.8   65s
 1768569 292566 infeasible   74      1.4000e+09 1.2000e+09  14.3%   3.8   70s
*1866434 167618              75    1.333346e+09 1.2000e+09  10.0%   3.8   74s
*1869002 38329              65    1.200013e+09 1.2000e+09  0.00%   3.8   75s

Explored 1869486 nodes (7042977 simplex iterations) in 75.10 seconds
Thread count was 8 (of 8 available processors)

Solution count 10: 1.20001e+09 1.33335e+09 1.40001e+09 ... 1.55001e+09

Optimal solution found (tolerance 1.00e-04)
Best objective 1.200012600000e+09, best bound 1.200007700000e+09, gap 0.0004%
